Important k-points
   6 
Reciprocal lattice
   0.0000000000   0.0000000000   0.0000000000  1   GAMMA          
   0.5000000000   0.0000000000   0.0000000000  1   M              
   0.0000000000   0.0000000000   0.5000000000  1   A              
   0.5000000000   0.0000000000   0.5000000000  1   L              
   0.3333333333   0.3333333333   0.0000000000  1   K              
   0.3333333333   0.3333333333   0.5000000000  1   H              
